NAME: cum160.tsp
TYPE: TSP
COMMENT: User-generated TSP file
DIMENSION: 160
EDGE_WEIGHT_TYPE: EUC_2D
NODE_COORD_SECTION
1 53.0 46.0
2 20.0 36.0
3 10.0 58.0
4 74.0 20.0
5 90.0 21.0
6 68.0 40.0
7 33.0 78.0
8 64.0 83.0
9 43.0 58.0
10 50.0 10.0
11 50.0 50.0
12 56.0 82.0
13 55.0 17.0
14 91.0 86.0
15 55.0 24.0
16 18.0 37.0
17 35.0 61.0
18 97.0 98.0
19 61.0 51.0
20 14.0 100.0
21 74.0 86.0
22 49.0 65.0
23 99.0 67.0
24 5.0 6.0
25 8.0 38.0
26 60.0 23.0
27 67.0 64.0
28 8.0 13.0
29 15.0 94.0
30 40.0 70.0
31 14.0 11.0
32 21.0 38.0
33 56.0 97.0
34 39.0 86.0
35 13.0 30.0
36 91.0 6.0
37 48.0 71.0
38 18.0 67.0
39 60.0 56.0
40 39.0 39.0
41 3.0 51.0
42 20.0 93.0
43 20.0 14.0
44 95.0 32.0
45 26.0 48.0
46 9.0 94.0
47 96.0 81.0
48 57.0 89.0
49 27.0 86.0
50 57.0 2.0
51 83.0 90.0
52 11.0 2.0
53 88.0 56.0
54 75.0 64.0
55 29.0 49.0
56 18.0 98.0
57 33.0 32.0
58 54.0 91.0
59 25.0 19.0
60 46.0 85.0
61 41.0 49.0
62 98.0 5.0
63 53.0 13.0
64 95.0 40.0
65 82.0 84.0
66 37.0 61.0
67 47.0 5.0
68 50.0 11.0
69 16.0 44.0
70 74.0 80.0
71 82.0 89.0
72 8.0 75.0
73 86.0 3.0
74 6.0 36.0
75 22.0 65.0
76 43.0 61.0
77 37.0 23.0
78 86.0 96.0
79 80.0 76.0
80 92.0 8.0
81 27.0 49.0
82 93.0 62.0
83 77.0 57.0
84 27.0 15.0
85 64.0 34.0
86 38.0 73.0
87 87.0 85.0
88 45.0 42.0
89 67.0 47.0
90 49.0 33.0
91 7.0 43.0
92 68.0 98.0
93 95.0 74.0
94 88.0 66.0
95 92.0 98.0
96 82.0 61.0
97 21.0 18.0
98 6.0 61.0
99 14.0 23.0
100 60.0 54.0
101 89.0 50.0
102 76.0 37.0
103 39.0 63.0
104 25.0 71.0
105 64.0 92.0
106 99.0 85.0
107 41.0 9.0
108 52.0 87.0
109 25.0 20.0
110 97.0 75.0
111 3.0 58.0
112 85.0 62.0
113 16.0 89.0
114 51.0 83.0
115 6.0 13.0
116 6.0 28.0
117 84.0 78.0
118 11.0 36.0
119 43.0 97.0
120 68.0 68.0
121 100.0 53.0
122 50.0 42.0
123 71.0 50.0
124 8.0 47.0
125 100.0 10.0
126 21.0 82.0
127 88.0 67.0
128 50.0 13.0
129 34.0 99.0
130 21.0 14.0
131 81.0 12.0
132 48.0 63.0
133 49.0 24.0
134 94.0 96.0
135 38.0 85.0
136 30.0 35.0
137 35.0 2.0
138 72.0 57.0
139 4.0 82.0
140 91.0 86.0
141 42.0 31.0
142 81.0 96.0
143 75.0 85.0
144 25.0 70.0
145 83.0 77.0
146 15.0 18.0
147 4.0 84.0
148 76.0 27.0
149 21.0 92.0
150 23.0 13.0
151 85.0 23.0
152 37.0 30.0
153 6.0 45.0
154 55.0 75.0
155 48.0 60.0
156 55.0 86.0
157 72.0 92.0
158 12.0 90.0
159 14.0 34.0
160 14.0 91.0
EOF

